Problem:    Pro02
Rows:       7
Columns:    4
Non-zeros:  18
Status:     OPTIMAL
Objective:  z = 14 (MAXimum)

   No.   Row name   St   Activity     Lower bound   Upper bound    Marginal
------ ------------ -- ------------- ------------- ------------- -------------
     1 z            B             14                             
     2 r[1]         NU             6                           6             2 
     3 r[2]         NU             4                           4           0.5 
     4 r[3]         B              4                           5 
     5 r[4]         B              0                           1 
     6 r[5]         B             -2                           2 
     7 r[6]         B              2                           6 

   No. Column name  St   Activity     Lower bound   Upper bound    Marginal
------ ------------ -- ------------- ------------- ------------- -------------
     1 x[1]         B              2             0               
     2 x[2]         NL             0             0                        -3.5 
     3 x[3]         B              2             0               
     4 x[4]         NL             0             0                        -3.5 

Karush-Kuhn-Tucker optimality conditions:

KKT.PE: max.abs.err = 0.00e+00 on row 0
        max.rel.err = 0.00e+00 on row 0
        High quality

KKT.PB: max.abs.err = 0.00e+00 on row 0
        max.rel.err = 0.00e+00 on row 0
        High quality

KKT.DE: max.abs.err = 0.00e+00 on column 0
        max.rel.err = 0.00e+00 on column 0
        High quality

KKT.DB: max.abs.err = 0.00e+00 on row 0
        max.rel.err = 0.00e+00 on row 0
        High quality

End of output
